&GLOBAL
  RUN_TYPE     MD
  PROJECT      iodine-liquid
&END GLOBAL
&MOTION
  &MD
    ENSEMBLE        NVT
    TIMESTEP        0.5
    STEPS           1000000
    TEMPERATURE     409.0
    &THERMOSTAT       
      TYPE            NOSE 
      REGION          MASSIVE 
      &NOSE             
        LENGTH       3
        MTS          2
        TIMECON      1000.0
        YOSHIDA      3
      &END NOSE             
    &END THERMOSTAT       
    &AVERAGES       
    &END AVERAGES       
    &PRINT       
      &ENERGY       
        &EACH       
        &END EACH       
      &END ENERGY       
      &PROGRAM_RUN_INFO       
        &EACH       
        &END EACH       
      &END PROGRAM_RUN_INFO     
    &END PRINT       
  &END MD
 
  &PRINT 
    &FORCES        OFF
      &EACH       
      &END EACH       
    &END FORCES        
    &RESTART_HISTORY        ON
      &EACH       
        MD              500             
      &END EACH       
    &END RESTART_HISTORY        
    &RESTART        ON
      BACKUP_COPIES        3
      &EACH       
        MD              1             
      &END EACH       
    &END RESTART        
    &STRESS       ON
      &EACH       
      &END EACH       
    &END STRESS       
    &VELOCITIES       OFF
      &EACH       
      &END EACH       
    &END VELOCITIES       
  &END PRINT 
  &GEO_OPT 
    MAX_DR        0.003
    MAX_FORCE        0.003
    MAX_ITER        100
    OPTIMIZER        BFGS
  &END GEO_OPT 
&END MOTION 
&FORCE_EVAL
  METHOD        QUICKSTEP
  STRESS_TENSOR        ANALYTICAL
  &DFT        
    BASIS_SET_FILE_NAME        /home/siepmann/singh891/cp2k-6.1.0/data/BASIS_MOLOPT
    CHARGE        0
    MULTIPLICITY        1
    POTENTIAL_FILE_NAME        /home/siepmann/singh891/cp2k-6.1.0/data/GTH_POTENTIALS
    &MGRID        
      CUTOFF      600
      NGRIDS      4
      REL_CUTOFF      60
    &END MGRID        
    &QS        
      EPS_DEFAULT       1e-10
      EXTRAPOLATION       ASPC
      METHOD       GPW
    &END QS        
    &POISSON        
      PERIODIC       XYZ
      &EWALD        
      &END EWALD        
    &END POISSON        
    &PRINT         
      &E_DENSITY_CUBE       OFF
      &END E_DENSITY_CUBE       
    &END PRINT        
    &SCF        
      EPS_SCF       1e-06
      MAX_SCF       30
      SCF_GUESS       ATOMIC
      &OT       .TRUE. 
        MINIMIZER       DIIS
        PRECONDITIONER       FULL_SINGLE_INVERSE
      &END OT        
      &OUTER_SCF       .TRUE. 
        EPS_SCF       1e-06
        MAX_SCF       10
      &END OUTER_SCF        
      &PRINT        
        DM_RESTART_WRITE       .TRUE.
        &RESTART       OFF
      &END RESTART   
      &END PRINT       
    &END SCF        
    &XC        
      &XC_FUNCTIONAL       BLYP 
      &END XC_FUNCTIONAL     
      &VDW_POTENTIAL        
        POTENTIAL_TYPE       PAIR_POTENTIAL
        &PAIR_POTENTIAL        
          PARAMETER_FILE_NAME       dftd3.dat
          REFERENCE_FUNCTIONAL       BLYP
          R_CUTOFF       11
          TYPE       DFTD3
        &END PAIR_POTENTIAL        
      &END VDW_POTENTIAL        
    &END XC        
  &END DFT        
  &SUBSYS        
    &CELL        
      ABC       13.0 13.0 13.0
    &END CELL        
    &COORD        
      @INCLUDE       iodine.xyz
    &END COORD        
    &KIND      I
      BASIS_SET       DZVP-MOLOPT-SR-GTH
      POTENTIAL       GTH-BLYP-q7
    &END KIND        
  &END SUBSYS        
&END FORCE_EVAL        
